SCIP version 0.82 [precision: 8 byte] [memory: block] [mode: optimized] [LP solver: SOPLEX 1.3.0]
Copyright (c) 2002-2006 Konrad-Zuse-Zentrum fuer Informationstechnik Berlin (ZIB)

reading parameter file <scip.set>

read problem </ufs/psxjm3/instances/random_5.ctt.et.zpl>
============

****************************************************
* Zuse Institute Mathematical Programming Language *
* Release 2.04  Copyright (C)2005 by Thorsten Koch *
****************************************************

original problem has 21408 variables (21340 bin, 68 int, 0 impl, 0 cont) and 8440 constraints

solve problem
=============

LP Solver <SOPLEX 1.3.0>: dual feasibility tolerance cannot be set -- tolerance of SCIP and LP solver may differ
LP Solver <SOPLEX 1.3.0>: barrier convergence tolerance cannot be set -- tolerance of SCIP and LP solver may differ
LP Solver <SOPLEX 1.3.0>: fastmip setting not available -- SCIP parameter has no effect
LP Solver <SOPLEX 1.3.0>: scaling not available -- SCIP parameter has no effect
LP Solver <SOPLEX 1.3.0>: presolving not available -- SCIP parameter has no effect
transformed problem has 21408 variables (21340 bin, 68 int, 0 impl, 0 cont) and 8440 constraints
   8440 constraints of type <linear>

presolving:
(round 1) 2748 del vars, 321 del conss, 2748 chg bounds, 0 chg sides, 0 chg coeffs, 0 upgd conss, 0 impls, 4158 clqs
(round 2) 2748 del vars, 602 del conss, 2748 chg bounds, 0 chg sides, 0 chg coeffs, 0 upgd conss, 0 impls, 4158 clqs
(round 3) 2748 del vars, 2506 del conss, 2748 chg bounds, 1907 chg sides, 0 chg coeffs, 0 upgd conss, 0 impls, 4158 clqs
(round 4) 2748 del vars, 2506 del conss, 2748 chg bounds, 1907 chg sides, 0 chg coeffs, 5557 upgd conss, 0 impls, 4158 clqs
(round 5) 2748 del vars, 2586 del conss, 2748 chg bounds, 1907 chg sides, 24 chg coeffs, 5557 upgd conss, 0 impls, 4158 clqs
   (28.6s) probing: 100/18592 (0.5%) - 0 fixings, 0 aggregations, 12 implications, 0 bound changes
presolving (6 rounds):
 2748 deleted vars, 2586 deleted constraints, 2748 tightened bounds, 0 added holes, 1907 changed sides, 24 changed coefficients
 24 implications, 4158 cliques
presolved problem has 18660 variables (18592 bin, 68 int, 0 impl, 0 cont) and 5854 constraints
   2500 constraints of type <knapsack>
   2673 constraints of type <setppc>
    377 constraints of type <linear>
    304 constraints of type <logicor>
objective value is always integral
Presolving Time: 30.53

 time | node  | left  |LP iter| mem |mdpt |frac |vars |cons |ccons|cols |rows |cuts |confs|strbr|  dualbound   | primalbound  |  gap   
 72.3s|     1 |     0 |  8281 | 159M|   0 | 680 |  18k|5854 |5854 |  18k|5854 |   0 |   0 |   0 | 6.992000e+03 |      --      |    Inf 
 84.0s|     1 |     0 |  9959 | 160M|   0 | 705 |  18k|5854 |5854 |  18k|5860 |   6 |   0 |   0 | 6.992000e+03 |      --      |    Inf 
 93.4s|     1 |     0 | 11204 | 160M|   0 | 728 |  18k|5854 |5854 |  18k|5866 |  12 |   0 |   0 | 6.992000e+03 |      --      |    Inf 
  109s|     1 |     0 | 13269 | 160M|   0 | 760 |  18k|5854 |5854 |  18k|5873 |  19 |   0 |   0 | 6.992000e+03 |      --      |    Inf 
  118s|     1 |     0 | 14473 | 160M|   0 | 660 |  18k|5854 |5854 |  18k|5880 |  26 |   0 |   0 | 6.992000e+03 |      --      |    Inf 
  127s|     1 |     0 | 15583 | 160M|   0 | 685 |  18k|5854 |5854 |  18k|5886 |  32 |   0 |   0 | 6.992000e+03 |      --      |    Inf 
  142s|     1 |     0 | 17600 | 160M|   0 | 695 |  18k|5854 |5854 |  18k|5895 |  41 |   0 |   0 | 6.992000e+03 |      --      |    Inf 
  637s|     1 |     2 | 33093 | 160M|   0 | 695 |  18k|5854 |5854 |  18k|5895 |  41 |   0 |  41 | 6.992000e+03 |      --      |    Inf 
 3070s|   100 |   101 |163181 | 163M|  99 | 125 |  18k|5854 |5111 |  18k|5888 |  41 |   0 | 219 | 6.992000e+03 |      --      |    Inf 
R3309s|   143 |   138 |189429 | 164M| 142 |   - |  18k|5854 |4602 |  18k|5888 |  41 |   0 | 235 | 6.992000e+03 | 6.997000e+03 |   0.07%
 4126s|   200 |   195 |267546 | 165M| 142 | 343 |  18k|5852 |5266 |  18k|5888 |  41 |   0 | 283 | 6.992000e+03 | 6.997000e+03 |   0.07%
 4968s|   300 |   295 |362520 | 166M| 142 |  38 |  18k|5852 |4685 |  18k|5888 |  41 |   0 | 331 | 6.992000e+03 | 6.997000e+03 |   0.07%
p5322s|   302 |   229 |423056 | 170M| 142 |   - |  18k|5852 |4228 |  18k|5888 |  41 |   0 | 331 | 6.992000e+03 | 6.994000e+03 |   0.03%
 6314s|   400 |   313 |519823 | 167M| 142 | 423 |  18k|5852 |5428 |  18k|5888 |  41 |   0 | 383 | 6.992000e+03 | 6.994000e+03 |   0.03%
(node 479) solution of LP 1338 not optimal (pfeas=1, dfeas=0) -- solving again with tighter feasibility tolerance
(node 479) solution of LP 1339 not optimal (pfeas=1, dfeas=0) -- solving again from scratch
(node 479) solution of LP 1371 not optimal (pfeas=1, dfeas=0) -- solving again with tighter feasibility tolerance
(node 479) solution of LP 1380 not optimal (pfeas=1, dfeas=0) -- solving again with tighter feasibility tolerance
(node 479) solution of LP 1381 not optimal (pfeas=1, dfeas=0) -- solving again from scratch
(node 479) solution of LP 1393 not optimal (pfeas=1, dfeas=0) -- solving again with tighter feasibility tolerance
(node 479) solution of LP 1394 not optimal (pfeas=1, dfeas=0) -- solving again from scratch
(node 479) solution of LP 1425 not optimal (pfeas=1, dfeas=0) -- solving again with tighter feasibility tolerance
(node 479) solution of LP 1426 not optimal (pfeas=1, dfeas=0) -- solving again from scratch

SCIP Status        : solving was interrupted [time limit reached]
Solving Time (sec) : 7658.98
Solving Nodes      : 479
Primal Bound       : +6.99400000000000e+03 (2 solutions)
Dual Bound         : +6.99200000000001e+03
Gap                : 0.03 %

primal solution:
================

objective value:                                 6994
Taught#1#1#52                                       1 	(obj:0)
Taught#1#4#8                                        1 	(obj:0)
Taught#1#5#2                                        1 	(obj:0)
Taught#1#6#40                                       1 	(obj:0)
Taught#1#7#39                                       1 	(obj:14)
Taught#1#8#18                                       1 	(obj:0)
Taught#1#9#56                                       1 	(obj:75)
Taught#1#10#43                                      1 	(obj:48)
Taught#1#11#19                                      1 	(obj:91)
Taught#1#12#47                                      1 	(obj:110)
Taught#2#4#40                                       1 	(obj:0)
Taught#2#5#16                                       1 	(obj:0)
Taught#2#6#50                                       1 	(obj:0)
Taught#2#7#36                                       1 	(obj:0)
Taught#2#9#47                                       1 	(obj:130)
Taught#2#10#27                                      1 	(obj:64)
Taught#2#11#29                                      1 	(obj:60)
Taught#2#12#13                                      1 	(obj:79)
Taught#3#3#55                                       1 	(obj:0)
Taught#3#4#16                                       1 	(obj:0)
Taught#3#5#53                                       1 	(obj:0)
Taught#3#6#7                                        1 	(obj:19)
Taught#3#7#67                                       1 	(obj:0)
Taught#3#8#44                                       1 	(obj:16)
Taught#3#9#41                                       1 	(obj:0)
Taught#3#10#13                                      1 	(obj:94)
Taught#3#11#32                                      1 	(obj:135)
Taught#3#12#37                                      1 	(obj:11)
Taught#4#1#30                                       1 	(obj:0)
Taught#4#4#11                                       1 	(obj:0)
Taught#4#6#44                                       1 	(obj:16)
Taught#4#7#10                                       1 	(obj:0)
Taught#4#8#7                                        1 	(obj:19)
Taught#4#9#17                                       1 	(obj:126)
Taught#4#10#48                                      1 	(obj:146)
Taught#4#11#19                                      1 	(obj:91)
Taught#4#12#38                                      1 	(obj:16)
Taught#5#4#11                                       1 	(obj:0)
Taught#5#6#58                                       1 	(obj:0)
Taught#5#7#9                                        1 	(obj:0)
Taught#5#9#41                                       1 	(obj:0)
Taught#5#10#33                                      1 	(obj:28)
Taught#5#11#17                                      1 	(obj:111)
Taught#5#12#14                                      1 	(obj:45)
Taught#6#1#10                                       1 	(obj:0)
Taught#6#3#35                                       1 	(obj:0)
Taught#6#4#6                                        1 	(obj:0)
Taught#6#9#46                                       1 	(obj:4)
Taught#6#10#15                                      1 	(obj:63)
Taught#6#11#32                                      1 	(obj:135)
Taught#6#12#12                                      1 	(obj:123)
Taught#7#6#53                                       1 	(obj:0)
Taught#7#7#6                                        1 	(obj:0)
Taught#7#8#26                                       1 	(obj:0)
Taught#7#9#46                                       1 	(obj:4)
Taught#7#10#12                                      1 	(obj:138)
Taught#7#11#48                                      1 	(obj:136)
Taught#7#12#24                                      1 	(obj:63)
Taught#8#1#52                                       1 	(obj:0)
Taught#8#2#50                                       1 	(obj:0)
Taught#8#3#57                                       1 	(obj:0)
Taught#8#4#31                                       1 	(obj:0)
Taught#8#5#62                                       1 	(obj:0)
Taught#8#7#61                                       1 	(obj:13)
Taught#8#8#28                                       1 	(obj:8)
Taught#8#9#21                                       1 	(obj:52)
Taught#8#10#1                                       1 	(obj:107)
Taught#8#11#23                                      1 	(obj:92)
Taught#8#12#38                                      1 	(obj:16)
Taught#9#1#4                                        1 	(obj:0)
Taught#9#2#30                                       1 	(obj:0)
Taught#9#4#45                                       1 	(obj:0)
Taught#9#5#51                                       1 	(obj:0)
Taught#9#6#28                                       1 	(obj:8)
Taught#9#9#66                                       1 	(obj:136)
Taught#9#10#25                                      1 	(obj:92)
Taught#9#11#42                                      1 	(obj:106)
Taught#9#12#27                                      1 	(obj:49)
Taught#10#1#57                                      1 	(obj:0)
Taught#10#4#4                                       1 	(obj:0)
Taught#10#5#53                                      1 	(obj:0)
Taught#10#6#9                                       1 	(obj:0)
Taught#10#9#29                                      1 	(obj:75)
Taught#10#10#68                                     1 	(obj:17)
Taught#10#11#47                                     1 	(obj:115)
Taught#10#12#43                                     1 	(obj:33)
Taught#11#1#58                                      1 	(obj:0)
Taught#11#2#26                                      1 	(obj:0)
Taught#11#3#22                                      1 	(obj:0)
Taught#11#4#18                                      1 	(obj:0)
Taught#11#5#53                                      1 	(obj:0)
Taught#11#6#61                                      1 	(obj:13)
Taught#11#7#67                                      1 	(obj:0)
Taught#11#8#28                                      1 	(obj:8)
Taught#11#9#27                                      1 	(obj:69)
Taught#11#10#54                                     1 	(obj:67)
Taught#11#11#24                                     1 	(obj:68)
Taught#11#12#64                                     1 	(obj:76)
Taught#12#4#18                                      1 	(obj:0)
Taught#12#5#30                                      1 	(obj:0)
Taught#12#6#55                                      1 	(obj:0)
Taught#12#7#44                                      1 	(obj:16)
Taught#12#8#51                                      1 	(obj:0)
Taught#12#9#66                                      1 	(obj:136)
Taught#12#10#42                                     1 	(obj:116)
Taught#12#11#20                                     1 	(obj:58)
Taught#12#12#3                                      1 	(obj:75)
Taught#13#9#63                                      1 	(obj:0)
Taught#13#10#29                                     1 	(obj:70)
Taught#13#11#54                                     1 	(obj:57)
Taught#13#12#3                                      1 	(obj:75)
Taught#14#1#5                                       1 	(obj:0)
Taught#14#5#6                                       1 	(obj:0)
Taught#14#6#11                                      1 	(obj:0)
Taught#14#8#60                                      1 	(obj:0)
Taught#14#9#24                                      1 	(obj:83)
Taught#14#10#34                                     1 	(obj:45)
Taught#14#11#49                                     1 	(obj:25)
Taught#14#12#23                                     1 	(obj:87)
Taught#15#4#5                                       1 	(obj:0)
Taught#15#5#16                                      1 	(obj:0)
Taught#15#7#60                                      1 	(obj:0)
Taught#15#8#8                                       1 	(obj:0)
Taught#15#9#41                                      1 	(obj:0)
Taught#15#10#59                                     1 	(obj:52)
Taught#15#11#23                                     1 	(obj:92)
Taught#15#12#34                                     1 	(obj:30)
Taught#16#1#57                                      1 	(obj:0)
Taught#16#2#22                                      1 	(obj:0)
Taught#16#4#45                                      1 	(obj:0)
Taught#16#8#62                                      1 	(obj:0)
Taught#16#9#20                                      1 	(obj:73)
Taught#16#10#25                                     1 	(obj:92)
Taught#16#11#42                                     1 	(obj:106)
Taught#16#12#49                                     1 	(obj:20)
Taught#17#4#2                                       1 	(obj:0)
Taught#17#5#16                                      1 	(obj:0)
Taught#17#6#7                                       1 	(obj:19)
Taught#17#7#40                                      1 	(obj:0)
Taught#17#8#60                                      1 	(obj:0)
Taught#17#9#49                                      1 	(obj:40)
Taught#17#10#21                                     1 	(obj:47)
Taught#17#11#20                                     1 	(obj:58)
Taught#17#12#66                                     1 	(obj:116)
Taught#18#4#4                                       1 	(obj:0)
Taught#18#6#2                                       1 	(obj:0)
Taught#18#8#67                                      1 	(obj:0)
Taught#18#9#34                                      1 	(obj:50)
Taught#18#10#33                                     1 	(obj:28)
Taught#18#11#54                                     1 	(obj:57)
Taught#18#12#56                                     1 	(obj:55)
Taught#19#4#51                                      1 	(obj:0)
Taught#19#5#45                                      1 	(obj:0)
Taught#19#7#18                                      1 	(obj:0)
Taught#19#9#63                                      1 	(obj:0)
Taught#19#10#1                                      1 	(obj:107)
Taught#19#11#42                                     1 	(obj:106)
Taught#19#12#48                                     1 	(obj:131)
Taught#20#7#67                                      1 	(obj:0)
Taught#20#8#61                                      1 	(obj:13)
Taught#20#9#46                                      1 	(obj:4)
Taught#20#10#59                                     1 	(obj:52)
Taught#20#11#15                                     1 	(obj:53)
Taught#20#12#64                                     1 	(obj:76)
Taught#21#3#5                                       1 	(obj:0)
Taught#21#6#39                                      1 	(obj:14)
Taught#21#7#35                                      1 	(obj:0)
Taught#21#9#46                                      1 	(obj:4)
Taught#21#10#19                                     1 	(obj:101)
Taught#21#11#32                                     1 	(obj:135)
Taught#21#12#17                                     1 	(obj:106)
Taught#22#6#7                                       1 	(obj:19)
Taught#22#9#63                                      1 	(obj:0)
Taught#22#10#37                                     1 	(obj:26)
Taught#22#11#33                                     1 	(obj:18)
Taught#22#12#32                                     1 	(obj:130)
Taught#23#2#6                                       1 	(obj:0)
Taught#23#6#60                                      1 	(obj:0)
Taught#23#8#65                                      1 	(obj:10)
Taught#23#9#41                                      1 	(obj:0)
Taught#23#10#37                                     1 	(obj:26)
Taught#23#11#68                                     1 	(obj:7)
Taught#23#12#56                                     1 	(obj:55)
Taught#24#5#31                                      1 	(obj:0)
Taught#24#6#22                                      1 	(obj:0)
Taught#24#7#65                                      1 	(obj:10)
Taught#24#9#29                                      1 	(obj:75)
Taught#24#10#12                                     1 	(obj:138)
Taught#24#11#33                                     1 	(obj:18)
Taught#24#12#68                                     1 	(obj:2)
Taught#25#1#10                                      1 	(obj:0)
Taught#25#4#45                                      1 	(obj:0)
Taught#25#5#22                                      1 	(obj:0)
Taught#25#6#39                                      1 	(obj:14)
Taught#25#7#35                                      1 	(obj:0)
Taught#25#8#36                                      1 	(obj:0)
Taught#25#9#24                                      1 	(obj:83)
Taught#25#10#48                                     1 	(obj:146)
Taught#25#11#56                                     1 	(obj:60)
Taught#25#12#14                                     1 	(obj:45)
CourseSchedule#1#2                                  1 	(obj:0)
CourseSchedule#1#4                                  1 	(obj:0)
CourseSchedule#2#1                                  1 	(obj:0)
CourseSchedule#2#4                                  1 	(obj:0)
CourseSchedule#3#3                                  1 	(obj:0)
CourseSchedule#4#2                                  1 	(obj:0)
CourseSchedule#4#4                                  1 	(obj:0)
CourseSchedule#5#3                                  1 	(obj:0)
CourseSchedule#5#5                                  1 	(obj:0)
CourseSchedule#6#2                                  1 	(obj:0)
CourseSchedule#6#3                                  1 	(obj:0)
CourseSchedule#6#5                                  1 	(obj:0)
CourseSchedule#7#1                                  1 	(obj:0)
CourseSchedule#7#4                                  1 	(obj:0)
CourseSchedule#7#5                                  1 	(obj:0)
CourseSchedule#8#1                                  1 	(obj:0)
CourseSchedule#8#3                                  1 	(obj:0)
CourseSchedule#9#1                                  1 	(obj:0)
CourseSchedule#9#2                                  1 	(obj:0)
CourseSchedule#10#1                                 1 	(obj:0)
CourseSchedule#10#2                                 1 	(obj:0)
CourseSchedule#10#5                                 1 	(obj:0)
CourseSchedule#11#1                                 1 	(obj:0)
CourseSchedule#11#3                                 1 	(obj:0)
CourseSchedule#12#2                                 1 	(obj:0)
CourseSchedule#12#5                                 1 	(obj:0)
CourseSchedule#13#1                                 1 	(obj:0)
CourseSchedule#14#1                                 1 	(obj:0)
CourseSchedule#14#5                                 1 	(obj:0)
CourseSchedule#15#2                                 1 	(obj:0)
CourseSchedule#15#4                                 1 	(obj:0)
CourseSchedule#16#1                                 1 	(obj:0)
CourseSchedule#16#3                                 1 	(obj:0)
CourseSchedule#16#4                                 1 	(obj:0)
CourseSchedule#17#1                                 1 	(obj:0)
CourseSchedule#17#5                                 1 	(obj:0)
CourseSchedule#18#1                                 1 	(obj:0)
CourseSchedule#18#3                                 1 	(obj:0)
CourseSchedule#18#4                                 1 	(obj:0)
CourseSchedule#19#1                                 1 	(obj:0)
CourseSchedule#19#5                                 1 	(obj:0)
CourseSchedule#20#3                                 1 	(obj:0)
CourseSchedule#20#4                                 1 	(obj:0)
CourseSchedule#21#2                                 1 	(obj:0)
CourseSchedule#21#4                                 1 	(obj:0)
CourseSchedule#22#3                                 1 	(obj:0)
CourseSchedule#22#4                                 1 	(obj:0)
CourseSchedule#22#5                                 1 	(obj:0)
CourseSchedule#23#2                                 1 	(obj:0)
CourseSchedule#23#3                                 1 	(obj:0)
CourseSchedule#24#2                                 1 	(obj:0)
CourseSchedule#24#3                                 1 	(obj:0)
CourseSchedule#24#5                                 1 	(obj:0)
CourseSchedule#25#2                                 1 	(obj:0)
CourseSchedule#25#4                                 1 	(obj:0)
CourseSchedule#26#2                                 1 	(obj:0)
CourseSchedule#26#3                                 1 	(obj:0)
CourseSchedule#27#1                                 1 	(obj:0)
CourseSchedule#27#2                                 1 	(obj:0)
CourseSchedule#27#3                                 1 	(obj:0)
CourseSchedule#28#2                                 1 	(obj:0)
CourseSchedule#28#3                                 1 	(obj:0)
CourseSchedule#29#1                                 1 	(obj:0)
CourseSchedule#29#2                                 1 	(obj:0)
CourseSchedule#29#3                                 1 	(obj:0)
CourseSchedule#29#5                                 1 	(obj:0)
CourseSchedule#30#1                                 1 	(obj:0)
CourseSchedule#30#2                                 1 	(obj:0)
CourseSchedule#30#3                                 1 	(obj:0)
CourseSchedule#31#2                                 1 	(obj:0)
CourseSchedule#31#5                                 1 	(obj:0)
CourseSchedule#32#1                                 1 	(obj:0)
CourseSchedule#32#2                                 1 	(obj:0)
CourseSchedule#32#5                                 1 	(obj:0)
CourseSchedule#33#1                                 1 	(obj:0)
CourseSchedule#33#4                                 1 	(obj:0)
CourseSchedule#33#5                                 1 	(obj:0)
CourseSchedule#34#3                                 1 	(obj:0)
CourseSchedule#34#4                                 1 	(obj:0)
CourseSchedule#35#2                                 1 	(obj:0)
CourseSchedule#35#5                                 1 	(obj:0)
CourseSchedule#36#1                                 1 	(obj:0)
CourseSchedule#36#5                                 1 	(obj:0)
CourseSchedule#37#1                                 1 	(obj:0)
CourseSchedule#37#5                                 1 	(obj:0)
CourseSchedule#38#1                                 1 	(obj:0)
CourseSchedule#38#2                                 1 	(obj:0)
CourseSchedule#39#1                                 1 	(obj:0)
CourseSchedule#39#5                                 1 	(obj:0)
CourseSchedule#40#1                                 1 	(obj:0)
CourseSchedule#40#4                                 1 	(obj:0)
CourseSchedule#41#1                                 1 	(obj:0)
CourseSchedule#41#3                                 1 	(obj:0)
CourseSchedule#41#5                                 1 	(obj:0)
CourseSchedule#42#2                                 1 	(obj:0)
CourseSchedule#42#3                                 1 	(obj:0)
CourseSchedule#42#4                                 1 	(obj:0)
CourseSchedule#43#1                                 1 	(obj:0)
CourseSchedule#43#2                                 1 	(obj:0)
CourseSchedule#44#1                                 1 	(obj:0)
CourseSchedule#44#3                                 1 	(obj:0)
CourseSchedule#45#2                                 1 	(obj:0)
CourseSchedule#45#4                                 1 	(obj:0)
CourseSchedule#45#5                                 1 	(obj:0)
CourseSchedule#46#2                                 1 	(obj:0)
CourseSchedule#46#4                                 1 	(obj:0)
CourseSchedule#46#5                                 1 	(obj:0)
CourseSchedule#47#1                                 1 	(obj:0)
CourseSchedule#47#2                                 1 	(obj:0)
CourseSchedule#48#1                                 1 	(obj:0)
CourseSchedule#48#2                                 1 	(obj:0)
CourseSchedule#48#4                                 1 	(obj:0)
CourseSchedule#48#5                                 1 	(obj:0)
CourseSchedule#49#3                                 1 	(obj:0)
CourseSchedule#49#4                                 1 	(obj:0)
CourseSchedule#50#1                                 1 	(obj:0)
CourseSchedule#50#2                                 1 	(obj:0)
CourseSchedule#51#2                                 1 	(obj:0)
CourseSchedule#51#3                                 1 	(obj:0)
CourseSchedule#51#4                                 1 	(obj:0)
CourseSchedule#52#1                                 1 	(obj:0)
CourseSchedule#52#2                                 1 	(obj:0)
CourseSchedule#53#1                                 1 	(obj:0)
CourseSchedule#53#2                                 1 	(obj:0)
CourseSchedule#53#3                                 1 	(obj:0)
CourseSchedule#54#3                                 1 	(obj:0)
CourseSchedule#54#4                                 1 	(obj:0)
CourseSchedule#55#1                                 1 	(obj:0)
CourseSchedule#55#3                                 1 	(obj:0)
CourseSchedule#56#1                                 1 	(obj:0)
CourseSchedule#56#4                                 1 	(obj:0)
CourseSchedule#56#5                                 1 	(obj:0)
CourseSchedule#57#2                                 1 	(obj:0)
CourseSchedule#57#4                                 1 	(obj:0)
CourseSchedule#58#1                                 1 	(obj:0)
CourseSchedule#58#3                                 1 	(obj:0)
CourseSchedule#59#3                                 1 	(obj:0)
CourseSchedule#59#4                                 1 	(obj:0)
CourseSchedule#60#3                                 1 	(obj:0)
CourseSchedule#60#4                                 1 	(obj:0)
CourseSchedule#60#5                                 1 	(obj:0)
CourseSchedule#61#2                                 1 	(obj:0)
CourseSchedule#61#3                                 1 	(obj:0)
CourseSchedule#61#4                                 1 	(obj:0)
CourseSchedule#62#2                                 1 	(obj:0)
CourseSchedule#62#4                                 1 	(obj:0)
CourseSchedule#63#3                                 1 	(obj:0)
CourseSchedule#63#4                                 1 	(obj:0)
CourseSchedule#63#5                                 1 	(obj:0)
CourseSchedule#64#3                                 1 	(obj:0)
CourseSchedule#64#4                                 1 	(obj:0)
CourseSchedule#65#5                                 1 	(obj:0)
CourseSchedule#66#2                                 1 	(obj:0)
CourseSchedule#66#3                                 1 	(obj:0)
CourseSchedule#66#4                                 1 	(obj:0)
CourseSchedule#67#1                                 1 	(obj:0)
CourseSchedule#67#3                                 1 	(obj:0)
CourseSchedule#67#4                                 1 	(obj:0)
CourseSchedule#68#2                                 1 	(obj:0)
CourseSchedule#68#5                                 1 	(obj:0)
PatternPenalties#2#4                                1 	(obj:1)
SingletonChecks#2#4#1                               1 	(obj:1)

Statistics
==========

SCIP Status        : solving was interrupted [time limit reached]
Solving Time       :    7658.98
Original Problem   :
  Problem name     : random_5.ctt.et.zpl
  Variables        : 21408 (21340 binary, 68 integer, 0 implicit integer, 0 continuous)
  Constraints      : 8440 initial, 8440 maximal
Presolved Problem  :
  Problem name     : t_random_5.ctt.et.zpl
  Variables        : 18660 (18592 binary, 68 integer, 0 implicit integer, 0 continuous)
  Constraints      : 5854 initial, 5854 maximal
Presolvers         :       Time  FixedVars   AggrVars   ChgTypes  ChgBounds   AddHoles    DelCons   ChgSides   ChgCoefs
  trivial          :       0.04          0          0          0          0          0          0          0          0
  inttobinary      :       0.00          0          0          0          0          0          0          0          0
  dualfix          :       0.02          0          0          0          0          0          0          0          0
  implics          :       0.02          0          0          0          0          0          0          0          0
  probing          :       5.69          0          0          0          0          0          0          0          0
  knapsack         :      15.80          0          0          0          0          0          0          0         24
  setppc           :       0.23          0          0          0          0          0         80          0          0
  linear           :       8.38       2748          0          0       2748          0       2506       1907          0
  logicor          :       0.00          0          0          0          0          0          0          0          0
  root node        :          -      10729          -          -      10729          -          -          -          -
Constraints        :     Number  #Separate #Propagate    #EnfoLP    #EnfoPS    Cutoffs    DomReds       Cuts      Conss   Children
  integral         :          0          0          0        465          0          1          0          0          0        928
  knapsack         :       2500          6       2103          0          0          0         72          0          0          0
  setppc           :       2673          6       2103          0          0          0      18481          0          0          0
  linear           :        377          6       1325          0          0          0       4400          0          0          0
  logicor          :        304          6        614          0          0          0        128          0          0          0
Constraint Timings :  TotalTime   Separate  Propagate     EnfoLP     EnfoPS
  integral         :    3014.99       0.00       0.00    3014.99       0.00
  knapsack         :       2.04       1.16       0.88       0.00       0.00
  setppc           :       0.65       0.00       0.65       0.00       0.00
  linear           :       6.49       0.43       6.06       0.00       0.00
  logicor          :       0.03       0.00       0.03       0.00       0.00
Propagators        :       Time      Calls    Cutoffs    DomReds
  rootredcost      :       0.09          2          0      10726
  pseudoobj        :       0.01       1729          0          0
Conflict Analysis  :       Time      Calls    Success  Conflicts   Literals    Reconvs ReconvLits   LP Iters
  propagation      :       0.00          0          0          0        0.0          0        0.0          -
  infeasible LP    :       0.00          0          0          0        0.0          0        0.0          0
  bound exceed. LP :       0.00          0          0          0        0.0          0        0.0          0
  strong branching :       0.00          0          0          0        0.0          0        0.0          0
  pseudo solution  :       0.00          0          0          0        0.0          0        0.0          -
  applied globally :          -          -          -          0        0.0          -          -          -
  applied locally  :          -          -          -          0        0.0          -          -          -
Separators         :       Time      Calls    Cutoffs    DomReds       Cuts      Conss
  cut pool         :       0.00          5          -          -          0          -    (maximal pool size: 43)
  redcost          :       1.85        359          0       2025          0          0
  impliedbounds    :       0.00          6          0          0          0          0
  intobj           :       0.00          0          0          0          0          0
  gomory           :       1.45          6          0          0          0          0
  strongcg         :       1.60          6          0          0          0          0
  cmir             :       3.28          6          0          0          0          0
  clique           :       0.37          6          0          0         41          0
Pricers            :       Time      Calls       Vars
  problem variables:       0.00          0          0
Branching Rules    :       Time      Calls    Cutoffs    DomReds       Cuts      Conss   Children
  relpscost        :    3014.98        465          1          0          0          0        928
  pscost           :       0.00          0          0          0          0          0          0
  inference        :       0.00          0          0          0          0          0          0
  mostinf          :       0.00          0          0          0          0          0          0
  leastinf         :       0.00          0          0          0          0          0          0
  fullstrong       :       0.00          0          0          0          0          0          0
  allfullstrong    :       0.00          0          0          0          0          0          0
Primal Heuristics  :       Time      Calls      Found
  LP solutions     :       0.00          -          0
  pseudo solutions :       0.00          -          0
  rootsoldiving    :       0.00          0          0
  linesearchdiving :       0.00          0          0
  guideddiving     :       0.00          0          0
  crossover        :       0.00          0          0
  coefdiving       :     106.31          1          0
  pscostdiving     :     340.93          1          1
  fracdiving       :      14.91          1          0
  feaspump         :     169.13          1          0
  simplerounding   :       2.37        475          0
  rounding         :       6.66        475          1
  shifting         :       3.50         51          0
  fixandinfer      :       0.00          0          0
  intdiving        :       0.00          0          0
  objpscostdiving  :     472.00          1          0
  octane           :       0.00          0          0
  rins             :       0.00          0          0
  localbranching   :       0.00          0          0
LP                 :       Time      Calls Iterations  Iter/call   Iter/sec
  primal LP        :       0.04          0          0       0.00       0.00
  dual LP          :    3478.29        485     524833    1082.13     150.89
  barrier LP       :       0.00          0          0       0.00          -
  diving/probing LP:    1089.55        942     155119     164.67     142.37
  strong branching :    3014.82        431     404548     938.63     134.19
    (at root node) :          -         41      39610     966.10          -
  conflict analysis:       0.00          0          0       0.00          -
B&B Tree           :
  number of runs   :          1
  nodes            :        479
  nodes (total)    :        479
  nodes left       :        378
  max depth        :        142
  max depth (total):        142
  backtracks       :          5 (1.0%)
  delayed cutoffs  :          0
  repropagations   :         85 (87 domain reductions, 0 cutoffs)
  avg switch length:       2.56
  switching time   :       0.69
Solution           :
  Solutions found  :          2 (2 improvements)
  Primal Bound     : +6.99400000000000e+03   (in run 1, after 302 nodes, 5321.50 seconds, depth 750, found by <pscostdiving>)
  Dual Bound       : +6.99200000000001e+03
  Gap              :       0.03 %
  Root Dual Bound  : +6.99200000000001e+03
